Making input
[A]Simulation types -> 1
• SimulationType MonteCarlo
Starts the Monte Carlo part of RASPA. The particular ensemble is not specified but implicitly deduced from the specified Monte Carlo moves. Note that a MD-move can be used for hybrid MC/MD.
• SimulationType MolecularDynamics
Starts the Molecular Dynamics part of RASPA. The ensemble is explicitly specified.
• SimulationType Spectra
Starts the computation of the vibrational analysis. Possible options include infra red spectrum at zero Kelvin, powder diffraction, and mode analysis.
• SimulationType Minimization
Starts the minimization routine. It produces configurations and crystal structures at zero Kelvin.
• SimulationType Visualization
Output VTK-files for snapshots and crystal structures, including energy surface pictures.
• SimulationType BarrierCrossing
Routine for the dynamical correction of dynamically corrected Transition State Theory.
• SimulationType Numerical
Computes all the forces numerically from the energy and compares them to the analytical expressions. Also the strain-derivative tensor (related to the stress tensor), and the second derivative of the energy
with respect to strain, as well as the Hessian matrix can be checked.
• SimulationType MakeGrid
Creates pre-tabulated energy-grids for use in rigid frameworks.
[A]Simulation duration -> 2
• NumberOfCycles [int]
The number of cycles for the production run. For Monte Carlo a cycle consists of N steps, where N isthe amount of molecules with a minimum of 20 steps. This means that on average during each cycle on each molecule a Monte Carlo move has been attempted (either successful or unsuccessful). For MD the number of cycles is simply the amount of integration steps.
• NumberOfInitializationCycles [int]
The number of cycles used to initialize the system using Monte Carlo. This can be used for both Monte Carlo as well as Molecular Dynamics to quickly equilibrate the positions of the atoms in the system.
• NumberOfEquilibrationCycles [int]
For Molecular Dynamics it is the number of MD steps to equilibrate the velocities in the systems. After this equilibration the production run is started. For Monte Carlo, in particular CFMC, the equilibration-phase is used to measure the biasing factors.
[A]Restart and crash-recovery -> 3
• RestartFile [yes|no]
Reads the positions, velocities, and force from the directory ‘RestartInitial’. Any creation of molecules in the ‘simulation.input’ file will be in addition and after this first read from file. This is useful to load initial positions of cations for example, and after that create adsorbates. The restart file is written at ‘PrintEvery’ intervals.
• ContinueAfterCrash [yes|no]
Write a binary file containing the complete status of the program. The file name is ‘binary restart.dat’ and is located in the directory ‘CrashRestart’. With this option to ‘yes’ the presence of this file will result in continuation from the point where the program was at the moment of outputting this file. The file can be quite big (several hundreds of megabytes) and will be outputted every ‘WriteBina-ryRestartFileEvery’ cycles.
• WriteBinaryRestartFileEvery [int]
The output frequency (i.e. every [int] cycles) of the crash-recovery file.
[A]Printing options -> 4
• PrintEvery [int]
Prints the loadings (when a framework is present) and energies every [int] cycles. For MD information like energy conservation and stress are printed.
• PrintPropertiesEvery [int]
Output running averages of many properties (i.e. Henry coefficients and elastic constants).
• PrintForcefieldToOutput [yes|no]
Prints the force field information to the output-file. Default: yes.
• PrintPseudoAtomsToOutput [yes|no]
Prints the pseudo-atom information to the output-file. Default: yes.
• PrintMoleculeDefinitionToOutput [yes|no]
Prints the molecule definition information to the output-file. Default: yes.
[A]Force field definitions -> 5
• ChargeFromChargeEquilibration [yes|no]
Compute the charges of the framework using the ‘charge-equilibration’-method.
• SymmetrizeFrameworkCharges [yes|no]
All charges of the framework are made equivalent for equivalent framework atoms. Using regular charge-equilibration the charges are different for symmtrically equivalent framework atoms, and this options restores the symmetry.
• ForceField [string]
Reads in the force field [string], first the file ‘pseudo atoms.def’ is read, then ‘force field mixing rules.def’ and finally ‘force field.def’. The latter overwrites general settings for interactions based on mixing rules with specific ones for individual interactions.Note that if any of these files are in the working directory then these will read and used instead of the ones in ‘${RASPA DIR}/simulations/share/raspa/forcefield/[string]’.
• CutOffVDW [real]
The cutoff of the Van der Waals potentials. Interactions longer then this distance are omitted from the energy and force computations. The potential can either be shifted to zero at the cutoff, or interactions can just neglected after the cut off, or the remainder of the potential energy can be approximated using tail corrections. This is specified in the force field files and can be specified globally or for each interaction individually.
• CutOffVDWSwitch [real]
The distance at which VDW switching will start. The smoothing will make sure the value and derivatives are zero at the cutoff. The default: 0.9 times the CutOff.
• CutOffChargeCharge [real]
The cutoff of the charge-charge potential. The potential is truncated at the cutoff and only shifted when ‘ChargeMethod CoulombShifted’ or ‘ChargeMethod CoulombSmoothed’ is used. No tail-corrections are (or can be) applied. The only way to include the long-range part is to use ‘ChargeMethod Ewald’. The parameter is also used in combination with the Ewald precision to compute the number of wave vectors and Ewald parameter α. For the Ewald summation using rather large unit cells, a charge-charge cutoff of about half the smallest box-length would be advisable in order to avoid the use of an excessive amount of wave-vectors in Fourier space. For non-Ewald methods the cutoff should be as large as possible (greater than about 30 Å).
• CutOffChargeChargeSwitch [real]
The distance at which charge-charge switching will start. The smoothing will make sure the value and derivatives are zero at the cutoff. The default: 0.65 times the CutOff.
• CutOffChargeBondDipole [real]
The cutoff of the charge-bonddipole potential.
• CutOffChargeBondDipoleSwitch [real]
The distance at which charge-bonddipole switching will start. The smoothing will make sure the value and derivatives are zero at the cutoff. The default: 0.70 times the CutOff.
• CutOffBondDipoleBondDipole [real]
The cutoff of the bonddipole-bonddipole potential.
• CutOffBondDipoleBondDipoleSwitch [real]
The distance at which bonddipole-bonddipole switching will start. The smoothing will make sure the value and derivatives are zero at the cutoff. The default: 0.75 times the CutOff.
• OmitAdsorbateAdsorbateVDWInteractions [yes|no]
Omits the Van der Waals interactions between adsorbates.
• OmitAdsorbateAdsorbateCoulombInteractions [yes|no]
Omits the Coulombic (i.e. Ewald) interactions between adsorbates.
• OmitInterMolecularInteractions [yes|no]
Omits the interactions between all molecules (only interactions with the framework). This also works with the Ewald summation on. The options implies the setting of both \n OmitAdsorbateAdsorbateVDWInteractions [yes|no] \n – OmitAdsorbateAdsorbateCoulombInteractions [yes|no]
• InternalFrameworkLennardJonesInteractions [yes|no]
Compute the Van der Waals interaction of the flexible framework. The Demontis flexible model for silicalite is defined with only bond, bend, and torsion for example. One can use this option and also use ‘Charge None’. 
• RemoveBendNeighboursFromLongRangeInteraction [yes|no] || RemoveTorsionNeighboursFromLongRangeInteraction [yes|no]
After construction of the connectivity table all interactions are removed from Van der Waals and charge interactions that are defined as 1-2 (i.e. bonds), 1-3 (i.e. bends, Urey-Bradley) and 1-4 (i.e. torsion, inversion-bend) respectively.
• Remove12NeighboursFromChargeChargeInteraction [yes|no] || Remove13NeighboursFromChargeChargeInteraction [yes|no] || Remove14NeighboursFromChargeChargeInteraction [yes|no]
Remove all 1-2, 1-3, and/or 1-4 interactions within the framework from the long-range charge-charge interaction within the flexible framework respectively.
• Remove12NeighboursFromChargeBondDipoleInteraction [yes|no] ||Remove13NeighboursFromChargeBondDipoleInteraction [yes|no] || Remove14NeighboursFromChargeBondDipoleInteraction [yes|no]
Remove all 1-2, 1-3, and/or 1-4 interactions within the framework from the long-range charge-bond dipole interaction within the flexible framework respectively.
• Remove12NeighboursFromBondDipoleBondDipoleInteraction [yes|no] || Remove13NeighboursFromBondDipoleBondDipoleInteraction [yes|no] || Remove14NeighboursFromBondDipoleBondDipoleInteraction [yes|no]
Remove all 1-2, 1-3, and/or 1-4 interactions within the framework from the long-range bond dipole-bond dipole interaction within the flexible framework respectively.
[A]Box parameters -> 6
• Box [int]  
  [real] [real] [real]
Set the system [int] to type ‘Box’ (other option is ‘Framework’ when a framework is present). The cell dimensions of rectangular box of system [int] in Angstroms. Default: 25 25 25 Å.
• BoxAngles [int]
  [real] [real] [real]   
Set the system [int] to type ‘Box’ (other option is ‘Framework’ when a framework is present). The cell angles of rectangular box of system [int] in Angstroms. Default: 90 ◦ 90 ◦ 90 ◦ .
• BoxMatrix [int]
 [real] [real] [real]   {referenceline1}
 [real] [real] [real]   {referenceline2}
 [real] [real] [real]   {referenceline3}
Set the system [int] to type ‘Box’ (other option is ‘Framework’ when a framework is present). The 3 × 3 cell matrix of system [int], given as three vectors (as columns). This is the most general form and any box can be specified in this way. Units of the vectors are Angstrom.
[A]Framework parameters -> 7
• Framework [int]
Set the system [int] to type ‘Framework’ (other option is ‘Box’ when no framework is present). All other options listed in the section framework parameters refer to this system, so make sure this is before any other framework options.
• FrameworkName [string]
Loads the framework with name [string]. Several frameworks can be read per system, which is useful for to study interpenetration of frameworks. Here the frameworks are allowed to move independently from each other.
• HeliumVoidFraction [real]
The void fraction as measure by probing the structure with helium a room temperature. This quantity has to be obtained from a separate simulation and is essential to compute the excess-adsorption during the simulation.
• UnitCells [int] [int] [int]
The number of unit cells in x,y, and z direction for the system. The full cell will contain the unit cells, and periodic boundary conditions will be applied on the box level (not on a unit cell level).
• ShiftUnitCells [real] [real] [real]
Shift the fractional positions so that the center of a framework can be altered.
• FlexibleFramework [yes|no]
Allow the current framework of the current system to be fully flexible. The name of the flexible model is provided using the ‘FrameworkDefinitions [string]’ input option.
• FrameworkDefinitions [string]
The force field name [string] of the flexible framework. The file is read even when ‘FlexibleFramework no’ is specified (the reason is that framework bond-dipoles are defined using the ‘framework.def’ file).
• ModifyFrameworkAtomConnectedTo [atom-type-1] [atom-type-2] [atom-type-3] [atom-type-4]
Modifies the atom-type-1 to atom-type-2, always if atom-type-3 and atom-type-4 are omitted, or only it is connected to atom-type-3 when atom-type-3 is specified, or only when it is connected to both atom-type-3 and atom-type-4 if both are specified.
• ModifyFrameworkDimer [atom-type-1] [atom-type-2] [atom-type-3] [atom-type-4]
Modifies the connected atom-type-1 and atom-type-2 dimer to atom-type-3 and atom-type-4.
• ModifyFrameworkTriple [atom-type-1] [atom-type-2] [atom-type-3] [atom-type-4] [atom-type-5] [atom-type-6]
Modifies the connected triple atom-type-1,atom-type-2,atom-type-3 to atom-type-4,atom-type-5,atom-type-6.
• RemoveAtomNumberCodeFromLabel [yes|no]
Reading structure-files: the number is removed from the framework atom-types, e.g. ‘O1’, ‘O2’, ‘O3’, etc. are mapped to ‘O’.
• AddAtomNumberCodeToLabel [yes|no]
Writing structure-files: the number is added to the framework atom-types, e.g. ‘O’ are mapped to ‘O1’, ‘O2’, ‘O3’, etc.
• RestrictFrameworkAtomsToBox [yes|no]
Restricts (places back) atoms to the unit cell dimensions, i.e. fractional positions between 0 and 1.
• ReadCIFAsCartesian [yes|no]
Reads the position listed in the CIF-file as Cartesian. Only applicable to P1 systems (no symmetry).
[A]Thermostat and barostat parameters -> 8
• ExternalTemperature [list-of-reals]
The external temperature in Kelvin for each system. Because the system is in contact with this imaginary reservoir the average temperature of the system can be controlled. Default: 298K.
• ExternalPressure [list-of-reals]
The external pressure in Pascal for each system. Because the system is in contact with this imaginary reservoir the average pressure of the system can be controlled.
• ThermostatChainLength [int]
The length of the chain to thermostat the system. Default: 5.
• BarostatChainLength [int]
The length of the chain to thermostat the volume and/or cell parameters. Default 5.
• NumberOfYoshidaSuzukiSteps [int]
The number of Yoshida/Suzuki multiple timesteps.
• TimeScaleParameterThermostat [real]
The time scale on which the system thermostat evolves. Default: 0.15 ps.
• TimeScaleParameterBarostat [real]
The time scale on which the thermostat for the volume and/or cell parameters evolve. Default: 0.15 ps.
[A]Molecular dynamics parameters -> 9
• TimeStep [real]
The time step in picoseconds for MD integration. Default value: 0.0005 ps (0.5 fs).
• Ensemble [list-of-NVE|NVT|NPT|NPH|NPTPR|NPHPR ]
Sets the ensemble as a list of NVE,NVT, NPT, NPH, NPTPR, or NPHPR for each system. If only a single ensemble is given, it is used for all systems. The given ensemble will be used for both initialization
as well as the production run.
– NVE
The micro canonical ensemble, the number of particle N , the volume V , and the energy E are constant.
– NVT
The canonical ensemble, the number of particle N , the volume V , and the average temperature hP i are constant. Instantaneous values for the temperature are fluctuating.
– NPT
The isobaric-isothermal ensemble, the number of particle N , the average pressure hP i, and the average temperature hP i are constant. Instantaneous values for the pressure and temperature are fluctuating.
– NPH
The isoenthalpic-isobaric ensemble, the number of particle N , the average pressure hP i, and the enthalpy H are constant. Instantaneous values for the pressure and temperature are fluctuating.
– NPTPR
The isobaric-isothermal ensemble with a fully flexible cell (Parrinello-Rahman).
• InitEnsemble [list-of-NVE|NVT|NPT|NPH|NPTPR|NPHPR ]
Sets the ensemble as a list of NVE,NVT, NPH, NPTPR, or NPHPR for each system. If only a single ensemble is given, it is used for all systems. The given ensemble will be only used for the initialization run.
• RunEnsemble [list-of-NVE|NVT|NPT|NPH|NPTPR|NPHPR ]
Set the ensemble as a list of NVE,NVT, NPH, NPTPR, or NPHPR for each system. If only a single ensemble is given, it is used for all systems. The given ensemble will be only used for the production run.
• NPTPRCellType [list-of-Regular|Monoclinic|RegularUpperTriangle|MonoclinicUpperTriangle|Isotropic|Anisotropic ]
The type of constraints on the cell-matrix h. Default: RegularUpperTriangle.
– Regular
If the pressure tensor is asymmetric (P αβ 6 = P βα ) at a given instant of time, then there will be a net torque acting on the cell that will cause it to rotate. Cell rotations can be eliminated by using the symmetrized tensor P αβ = (P αβ + P βα )/2 in the equations of motion and setting the initial total angular momentum of the cell to zero. This approach is formally implemented by constraining the force on the cell g = g T . All three angles α, β, γ are allowed to change, as well as the box lengths a, b, c.
– Monoclinic
All three box lengths a, b, c are allowed to vary, as well as cell angle β, but α = γ = 90 ◦ .
– RegularUpperTriangle
Only the upper triangular part of the cell matrix is used to eliminate rotation of the box. All three angles α, β, γ are allowed to change, as well as the box lengths a, b, c.
– MonoclinicUpperTriangle
Only the upper triangular part of the cell matrix is used to eliminate rotation of the box. All three box lengths a, b, c are allowed to vary, as well as cell angle β, but α = γ = 90 ◦ .
– Isotropic
All three box lengths a = b = c are allowed to vary isotropically, and the angles remain fixed α = β = γ = 90 ◦ .
– Anisotropic
All three box lengths a, b, c are allowed to vary independently, but the angles remain fixed α = β = γ = 90 ◦ .
[A]System moves -> 10
• FrameworkChangeMoveProbability [real]
The probability per cycle to randomly translate a framework atom. During this move the number of inner cycles is the amount of framework atoms, with a maximum of 500. This move is applicable to relatively rigid structures like zeolites. For other structure where movement is caused by collective behavior (for example, the rotation of a phenyl-ring in a metal-organic framework) the MC/MD move is more convenient. Such movement is hardly sampled at all by individual MC translation moves.
• VolumeChangeProbability [real]
The probability per cycle to attempt a volume-change. Rigid molecules are scaled by center-of-mass, while flexible molecules and the framework is atomically scaled.
• BoxShapeChangeProbability [real]
The probability per cycle to attempt a shape-change of the box. One of the 6 upper triangular elements of the box matrix is randomly chosen. Rigid molecules are scaled by center-of-mass, while flexible molecules and the framework is atomically scaled.
• GibbVolumeChangeProbability [real]
The probability per cycle to attempt a Gibbs volume-change MC move during a Gibbs ensemble simulation. The total volume of the two boxes (usually one for the gas phase, one for the liquid phase) remains constant, but the individual volume of the boxes are changed. The volumes are changed by a random change in ln(V I /V II ).
• HybridNVEMoveProbability [real]
The probability per cycle to attempt a hybrid Monte Carlo move using Molecular Dynamics in the NVE-ensemble. The whole system is integrated using Newton’s equations of motion. The new configuration is then accepted or rejected using the standard MC rule. Note that the difference in energy ∆U is the integration error. The integration time step is set using ‘TimeStep’.
• NumberOfHybridNVESteps [int]
The number of integration steps for the hybrid MC/MD NVE move. Default: 5.
• ParallelTemperingProbability [real]
A move where two neighboring systems are swapped that differ in their temperature.
• HyperParallelTemperingProbability [real]
A move where two neighboring systems are swapped that differ in their temperature and chemical potentials.
• ParallelMolFractionProbability [real]
A move where two neighboring systems (similar to parallel tempering) are swapped that differ in their mol-fraction of components A and B.
• ParallelMolFractionComponentA [int]
The identifier of the first component.
• ParallelMolFractionComponentB [int]
The identifier of the second component.
• ChiralInversionProbability [real]
A move specifically designed for systems with chiral molecules to change all S-molecules into R-molecules and vica versa. Note that the spacegroup needs to be set. If you have a framework that is P1 but has higher symmetry then use ‘CalculateSpaceGroup yes’ to determine the true space group of the framework. An error will be given if this move is impossible for your system (e.g. when the framework is chiral).
[A]Component information -> 11
• Component [int] MoleculeName [string]
Reads in the definition of component [int] using the file ‘molecule-name-string.def’ from the directory ‘${RASPA DIR}/share/raspa/molecules/molecule-definitions-string’.
• MoleculeDefinitions [string]
The type of the molecule. For example, there could an OPLS version of the molecule, or a TraPPE version, etc. This molecule-definitions-string is actually the directory name under which the molecule file is found in ‘${RASPA DIR}/share/raspa/molecules/’.
• StartingBead [int]
The staring bead for the configurational bias Monte Carlo (CBMC). In CBMC the molecule is grown bead by bead biasing the growth towards energetically favorable configurations. Certain operations, like the rotation MC move and Widom particle insertion, use this bead as the center of rotation and position of the probe molecule, respectively.
• BlockPockets [yes|no]
Block certain pockets in the simulation volume. The growth of a molecule is not allowed in a blocked pocket. A typical example is the sodalite cages in FAU and LTA-type zeolites, these are not accessible to molecules like methane and bigger.
• BlockPocketsFileName [string]
The file name for the definitions of all the blocking spheres.
• MolFraction [real]
The mol fraction of this component in the mixture. The values can be specified relative to other components, as the fractions are normalized afterwards. The partial pressures for each component are computed from the total pressure and the mol fraction per component.
• FugacityCoefficient [real]
The fugacity coefficient for the current component. For values 0 (or by not specifying this line), the fugacity coefficients are automatically computed using the Peng-Robinson equation of state. Note the critical pressure, critical temperature, and acentric factor need to be specified in the molecule file.
• Intra14VDWScalingValue [real]
The scaling factor for intra-molecular 1-4 van der Waals interactions. For example: OPLS uses a factor of 2 1 .
• Intra14ChargeChargeScalingValue [real]
The scaling factor for intra-molecular 1-4 charge/charge interactions. For example: OPLS uses a factor of 12 .
• IdealGasRosenbluthWeight [real]
The ideal Rosenbluth weight is the growth factor of the CBMC algorithm for a single chain in an empty box. The value only depends on temperature and therefore needs to be computed only once. For adsorption, specifying the value in advance is convenient because the applied pressure does not need to be corrected afterwards (the Rosenbluth weight corresponds to a shift in the chemical potential reference value, and the chemical potential is directly obtained from the fugacity). For equimolar mixtures this is essential.
• GibbsSwapProbability [real]
The relative probability to attempt a Gibbs swap MC move for the current component. The ‘GibbsSwapMove’ transfers a randomly selected particle from one box to the other (50% probability to transfer a particle from box I to II, an 50% visa versa).
• TranslationProbability [real]
The relative probability to attempt a translation move for the current component. A random displacement is chosen in the allowed directions (see ‘TranslationDirection’). Note that the internal configuration of the molecule is unchanged by this move. The maximum displacement is scaled during the simulation to achieve an acceptance ratio of 50%.
• TranslationDirection [X|Y|Z|XY|XZ|YZ|XYZ|A|B|C|AB|AC|BC|ABC|
ORTHOGONAL_TO_AB_DIR|ORTHOGONAL_TO_AC_DIR|ORTHOGONAL_TO_BC_DIR|ORTHOGONAL_TO_O_AB_DIR|ORTHOGONAL_TO_O_AC_DIR|ORTHOGONAL_TO_O_BC_DIR|ORTHOGONAL_TO_A_BC_DIR|ORTHOGONAL_TO_B_AC_DIR|ORTHOGONAL_TO_C_AB_DIR|ORTHOGONAL_TO_O_ABC_DIR]
Specifies the allowed translation direction for the current component. Useful to sampling configuration with the starting bead restricted to a plane, i.e. see dcTST. Default: XYZ.
• RandomTranslationProbability [real]
The relative probability to attempt a random translation move for the current component. The displacement is chosen such that any position in the box can reached. It is therefore similar as reinsertion, but ‘reinsertion’ changes the internal conformation of a molecule and uses biasing.
• RotationProbability [real]
The relative probability to attempt a random rotation move for the current component. The rotation is around the starting bead. A random vector on a sphere is generated, and the rotation is random around this vector.
• CBMCProbability [real]
The relative probability to attempt a partial reinsertion move for the current component. Part of the molecule is regrown, while part of the molecule can remain fixed. The list of partial reinsertion moves is specified in the ‘molecule.def’ file.
• ReinsertionProbability [real]
The relative probability to attempt a full reinsertion move for the current component. Multiple first beads are chosen, and one of these is selected according to its Boltzmann weight. The remaining part of the molecule is grown using biasing. This move is very useful, and often necessary, to change the internal configuration of flexible molecules.
• SwapProbability [real]
The relative probability to attempt a insertion or deletion move. Whether to insert or delete is decided randomly with a probability of 50% for each. The swap move imposes a chemical equilibrium between the system and an imaginary particle reservoir for the current component. The move starts with multiple first bead, and grows the remainder of the molecule using biasing.
• WidomProbability [real]
The relative probability to attempt a Widom particle insertion move for the current component. The Widom particle insertion moves measure the chemical potential and can be directly related to Henry coefficients and heats of adsorption.
• SurfaceAreaProbability [real]
The relative probability to attempt a surface-area move for the current component.
• ReinsertionInPlaceProbability [real]
The relative probability to attempt a reinsertion-in-place move for the current component. The reinsertion position is the current position of the starting bead of the randomly selected molecule. Alternatively, one can use the partial reinsertion move leaving one bead fixed. The move is very useful to sample configuration on a plane for dcTST to change the internal configuration, e.g. bonds, bends, torsions, etc.
• IdentityChangeProbability [real]
The relative probability to attempt an identity-change move for the current component. A molecule of type A is reinsertion, in the same place as the starting bead of A, as type B using the starting bead of component B. The A − B list is defined using ‘IdentityChangesList’ defining B for each component A, i.e. the current component can be reinserted into any component defined in the ‘IdentityChangesList’ list, and from that list the component is chosen randomly.
• NumberOfIdentityChanges [int]
The number of ‘IdentityChangesList’ elements for the current component.
• IdentityChangesList [list-of-int]
The list of components that the current component can be changed into. The identity-change move will randomly choose the new component from this list.
• GibbsIdentityChangeProbability [real]
The relative probability to attempt an identity change for the current component in the Gibbs en-semble. It is a very useful move to for mixture of n components. Out of the n components, two components i 6 = j are selected at random. At random, it is selected to switch the identity of component i in box I or in box II, and the identity of the component j in the other box. In each box, a particle is selected at random which matches the desired identity.
• NumberOfGibbsIdentityChanges [int]
The number of ‘GibbsIdentityChangesList’ elements for the current component.
• GibbsIdentityChangesList [list-of-int]
The list of components that the current component can be changed into. The Gibbs-identity-change move will randomly choose the new component from this list.
• ExtraFrameworkMolecule [yes|no]
There are two major types of molecules, ‘Adsorbates’ and ‘Cations’. The ‘ExtraFrameworkMolecule’ keyword sets whether the current component is a ‘Cation’ (yes) or a ‘Adsorbate’ (no). Energies in the output as splitted in Host-Host, Host-Adsorbate, Host-Cation, Adsorbate-Adsorbate, Cation-Cation, and Adsorbate-Cation. The distinction in two types of molecule is sometimes necessary. For example, consider a mixture of components, where polarization needs to be neglected between certain components (because they are parameterized without). The water model ‘rpol’ is defined including polarization, but CO2 using TraPPE is not. One can define water as ‘Adsorbate’, CO2 as ‘Cation’ and neglect polarization between cations.
• RestrictEnantionface [yes|no]
Restricts all MC-moves to the enantioface defined by ‘Enantioface’. Moves that result in an opposite enantioface are rejected.
• Enantioface [Re|Si]
The enantioface of the component, either ‘Re’ or ‘Si’.
• EnantiofaceAtoms [F|A|C] [int] [int] [F|A|C] [int] [int] [F|A|C] [int] [int] [F|A|C] [int] [int] [F|A|C] [int] [int]
The definition of the enantioface based on 5 atoms. The first 4 form a torsion, as well as the first 3 and the last atom. These two torsions form the definition of the enantioface.
• CreateNumberOfMolecules [int]
The number of molecule to create for the current component. Note these molecules are in addition to anything read in by using a restart-file. Usually, when the restart-file is used the amount here should be put back to zero. A warning, putting this value unreasonably high results in an infinite loop. The routine accepts molecules that are grown causing no overlap (energy smaller than ‘EnergyOverlapCriteria’). Also the initial starting configurations are far from optimal and substantial equilibration is needed to reduce the energy. However, the CBMC growth is able to reach very high densities